Instance Name : rc101
Date : 2022-07-18
Solution
Route 1 : 45 5 2 7 6 8 3 1 70
Route 2 : 95 62 67 71 94 96 54
Route 3 : 92 31 29 27 26 32 93
Route 4 : 52 99 57 86 74 24
Route 5 : 63 33 28 30 34 50 80
Route 6 : 82 11 15 16 9 10 13 17
Route 7 : 65 59 75 87 97 58 77
Route 8 : 69 98 88 53 78 60
Route 9 : 19 76 89 91
Route 10 : 39 42 44 61 81 68 55
Route 11 : 64 51 85 84 56 66
Route 12 : 72 36 38 41 40 43 37 35
Route 13 : 90
Route 14 : 83 23 21 18 22 49 20 48 25
Route 15 : 14 47 12 73 79 46 4 100
